21 37 
59 29 
42 43 
30 48 
56 17 
63 1 
58 60 
52 43 
40 37 
74 3 
6 72 
66 99 
40 59 
75 85 
79 0 
70 52 
37 30 
82 32 
73 12 
80 81 
81 96 
34 91 
8 86 
34 0 
23 8 
4 30 
81 22 
81 73 
34 56 
59 65 
